2132524
44
1
2
21
27
64
65
71
79
185
196
331
355
389
430
643
680
792
1160
1170
1195
1216
1229
1385
1786
1793
1997
2132
2282
2554
3812
4242
4386
4535
4975
4976
4978
4980
4981
4983
4984
4986
4988
4994
4996
